# Solution for model r5_t36_m3_5 Batch Number: 4
# Finished Task: 33 / 36
# Makespan: 624.0, Total Distance: 758.0, Total Time: 3.5896
# R O S F Batch
0 0 18 0.0 0.0 -1
1 1 28 0.0 0.0 -1
2 2 8 0.0 0.0 -1
3 3 34 0.0 0.0 -1
4 4 26 0.0 0.0 -1
5 2 39 321.0 352.0 0
6 1 -1 596.0 619.0 3
7 2 29 554.0 592.0 3
8 2 10 152.0 178.0 0
9 0 37 427.0 447.0 1
10 2 33 219.0 252.0 0
11 4 30 422.0 460.0 3
12 0 9 364.0 389.0 1
13 1 24 414.0 447.0 1
14 4 -1 545.0 572.0 3
15 4 36 231.0 270.0 0
16 -1 -1 -1.0 -1.0 3
17 4 15 127.0 150.0 0
18 0 12 325.0 347.0 0
19 3 31 326.0 352.0 0
20 2 25 412.0 439.0 1
21 4 11 382.0 407.0 2
22 1 13 371.0 399.0 1
23 2 7 502.0 531.0 3
24 1 32 482.0 520.0 2
25 2 23 447.0 473.0 3
26 4 17 90.0 116.0 0
27 3 -1 497.0 520.0 2
28 1 22 271.0 296.0 0
29 2 -1 602.0 624.0 3
30 4 14 473.0 511.0 3
31 3 40 352.0 382.0 2
32 1 6 531.0 558.0 3
33 2 5 270.0 300.0 0
34 3 19 276.0 312.0 0
35 -1 -1 -1.0 -1.0 3
36 4 21 314.0 352.0 0
37 0 -1 590.0 624.0 3
38 -1 -1 -1.0 -1.0 2
39 2 20 373.0 394.0 1
40 3 27 406.0 443.0 2
